n=12;
m=52;
k=4;
initial_edges=[
(1, 9),
(1, 2),
(1, 12),
(1, 10),
(1, 8),
(1, 6),
(2, 10),
(2, 4),
(2, 3),
(2, 8),
(2, 7),
(2, 12),
(2, 9),
(2, 6),
(3, 11),
(3, 12),
(3, 6),
(3, 5),
(3, 10),
(3, 4),
(3, 9),
(3, 7),
(4, 12),
(4, 7),
(4, 5),
(4, 11),
(4, 9),
(4, 6),
(5, 11),
(5, 10),
(5, 7),
(5, 12),
(5, 9),
(5, 6),
(6, 8),
(6, 11),
(6, 9),
(6, 10),
(7, 10),
(7, 9),
(7, 8),
(7, 12),
(8, 11),
(8, 9),
(8, 10),
(8, 12),
(9, 10),
(9, 12),
(9, 11),
(10, 11),
(10, 12),
(11, 12),
];